nNurses = 67;
nHours = 29;
minHours = 6;
maxHours = 13;
maxConsec = 9;
maxPresence = 17;
demand = [10, 13, 10, 6, 11, 16, 12, 11, 13, 10, 11, 14, 14, 19, 16, 13, 12, 15, 15, 14, 14, 16, 14, 11, 6, 8, 7, 7, 7];
